14
0 17 61 35 36 35 30 31 60 71 45 61 57 78
17 0 66 56 57 36 51 33 31 69 38 61 78 36
61 66 0 30 57 47 66 68 45 49 8 80 40 63
35 56 30 0 40 52 64 26 32 60 57 40 28 50
36 57 57 40 0 50 77 56 39 24 36 73 91 22
35 36 47 52 50 0 38 49 81 29 65 35 24 60
30 51 66 64 77 38 0 55 59 65 26 35 34 44
31 33 68 26 56 49 55 0 16 50 36 44 89 69
60 31 45 32 39 81 59 16 0 61 71 60 33 34
71 69 49 60 24 29 65 50 61 0 43 33 46 27
45 38 8 57 36 65 26 36 71 43 0 46 27 45
61 61 80 40 73 35 35 44 60 33 46 0 37 92
57 78 40 28 91 24 34 89 33 46 27 37 0 74
78 36 63 50 22 60 44 69 34 27 45 92 74 0
